


set	REGION := North South ;	

set DAY := 1 2 3 4;

set HOUR := 1 2 3 4;

set FIRMS := 1 2 3 4 5 6 7;


set INREGION  := North;

set OUTREGION := South;

set TLINES := NtoS;

param PTDF: South :=
	NtoS 1
;		

param FCAP := NtoS 35000;

				param a :=			
North	1	1	3285
North	1	2	5950
North	1	3	7355
North	1	4	4587
North	2	1	3900
North	2	2	11645
North	2	3	8120
North	2	4	4150
North	3	1	4321
North	3	2	4354
North	3	3	9644
North	3	4	7350
North	4	1	4271
North	4	2	3792
North	4	3	8979
North	4	4	5994
South	1	1	4198
South	1	2	8871
South	1	3	11639
South	1	4	10618
South	2	1	5837
South	2	2	13710
South	2	3	10532
South	2	4	9334
South	3	1	7141
South	3	2	8802
South	3	3	14811
South	3	4	10805
South	4	1	6710
South	4	2	11427
South	4	3	10396
South	4	4	10125
;			

param b := North -1 South -1
;


param CARBONCAP := 240000;set UNITS :=				
11		1		South
12		1		South
13		1		South
14		1		South
15		1		South
16		1		South
21		2		South
22		2		South
23		2		South
24		2		South
25		2		South
26		2		South
27		2		South
31		3		North
32		3		North
33		3		North
34		3		North
35		3		North
41		4		South
42		4		South
43		4		South
44		4		South
45		4		South
46		4		South
47		4		South
48		4		South
51		5		North
52		5		North
53		5		North
54		5		North
55		5		North
56		5		North
61		6		South
62		6		South
63		6		South
64		6		South
65		6		South
71		7		North
72		7		North
73		7		North
74		7		North
75		7		North
;				
param: maxtherm fixom E mc :=							
11	1		South	1900	8000	1.10	36.50
12	1		South	250	0	0.85	73.72
13	1		South	300	2000	0.46	40.50
14	1		South	150	2000	0.77	66.50
15	1		South	350	3000	0.48	41.94
16	1		South	950	5000	0.48	41.94
21	2		South	400	1000	0.51	44.83
22	2		South	650	1000	0.47	41.22
23	2		South	550	2000	0.61	52.50
24	2		South	150	0	0.77	65.50
25	2		South	950	2000	0.49	41.67
26	2		South	200	0	1.06	90.06
27	2		South	700	2000	0.51	43.83
31	3		North	335	2000	0.45	38.78
32	3		North	665	4000	0.43	36.61
33	3		North	750	8000	0.37	32.56
34	3		North	750	8000	0.37	32.56
35	3		North	150	0	0.72	61.17
41	4		South	650	2000	0.49	42.39
42	4		South	850	8000	0.49	42.67
43	4		South	150	1000	0.72	62.89
44	4		South	300	0	0.89	75.61
45	4		South	300	1000	0.44	39.06
46	4		South	150	1000	0.60	52.06
47	4		South	700	7000	0.44	38.06
48	4		South	700	7000	0.44	38.06
51	5		North	650	2500	0.48	40.94
52	5		North	650	2500	0.43	36.61
53	5		North	700	4000	0.70	59.72
54	5		North	150	1000	0.68	58.28
55	5		North	700	6000	0.46	39.50
56	5		North	150	0	0.82	69.83
61	6		South	1000	15000	0.00	0.00
62	6		South	750	15000	0.94	34.50
63	6		South	750	15000	0.94	34.50
64	6		South	150	0	0.58	49.61
65	6		South	100	0	0.63	53.94
71	7		North	150	0	0.55	47.44
72	7		North	800	15000	0.00	0.50
73	7		North	150	1000	0.56	49.17
74	7		North	250	1000	0.88	75.89
75	7		North	1000	20000	0.00	11.50						;	